 C  N                                   
   1.00000000000000     
    21.4657208748990485    0.0000000000000000    0.0000000000000000
     0.0000000000000000   17.3526572834225448    0.0000000000000000
     0.0000000000000000    0.0000000000000000   19.9975756782801639
   C    N 
   134     4
Direct
  0.0341129238689746  0.0379428711904453  0.5000000000000000
  0.1670184269603681  0.0358281007310666  0.5000000000000000
  0.1341924411449611  0.1079438865116487  0.5000000000000000
  0.0677098153923978  0.1096561941829179  0.5000000000000000
  0.0354505761642727  0.1830577943096756  0.5000000000000000
  0.1681062993658387  0.1789535333033356  0.5000000000000000
  0.1374140245783408  0.2528901249031819  0.5000000000000000
  0.0690922374720273  0.2551181744300806  0.5000000000000000
  0.0337240770894738  0.3275250153920481  0.5000000000000000
  0.0325852639901640  0.4630222422333929  0.5000000000000000
  0.0673064722570587  0.5378593226998234  0.5000000000000000
  0.0321304033788010  0.6083029222281411  0.5000000000000000
  0.1625859854790974  0.6042544298667423  0.5000000000000000
  0.1318934721710576  0.6781906024761639  0.5000000000000000
  0.0655237559405464  0.6793475870318488  0.5000000000000000
  0.0325854574600726  0.7512996854514569  0.5000000000000000
  0.1658074971194949  0.7491994554765924  0.5000000000000000
  0.1329810047940470  0.8213142142040368  0.5000000000000000
  0.0662742789271888  0.8223320129526570  0.5000000000000000
  0.0333578528655849  0.8942136460787680  0.5000000000000000
  0.1664724602858456  0.8924920988833662  0.5000000000000000
  0.1335268837157244  0.9646502364218037  0.5000000000000000
  0.0669233008920997  0.9657520464339910  0.5000000000000000
  0.2337250365259465  0.0348106140621454  0.5000000000000000
  0.3668334333341434  0.0342869647673112  0.5000000000000000
  0.3338350300103059  0.1058157093387351  0.5000000000000000
  0.2674138073143624  0.1058431119903744  0.5000000000000000
  0.2344758749971589  0.1777962571743572  0.5000000000000000
  0.3673089405531940  0.1774066660566191  0.5000000000000000
  0.3343430746901177  0.2486956624858294  0.5000000000000000
  0.2678692053427270  0.2488416144121857  0.5000000000000000
  0.2326932469674432  0.3192857898573394  0.5000000000000000
  0.3675669885996484  0.3201694215322277  0.5000000000000000
  0.3343126414441215  0.3914359530222313  0.5000000000000000
  0.2674146836501308  0.3941221235470636  0.5000000000000000
  0.3672201862059836  0.4627879644013433  0.5000000000000000
  0.3333464988040404  0.5334931613447367  0.5000000000000000
  0.2662760936815545  0.5296190757735815  0.5000000000000000
  0.2309078985708197  0.6020255020240768  0.5000000000000000
  0.3661205455002587  0.6053731235283806  0.5000000000000000
  0.3320006842564780  0.6759633589094420  0.5000000000000000
  0.2645499330130932  0.6740856403006887  0.5000000000000000
  0.2322902243903258  0.7474865997381173  0.5000000000000000
  0.3655436381295161  0.7478229333590747  0.5000000000000000
  0.3326655995240912  0.8196164056318622  0.5000000000000000
  0.2658870622450920  0.8192000710712861  0.5000000000000000
  0.2330761997005055  0.8913901128325890  0.5000000000000000
  0.3662043395600421  0.8911085629676094  0.5000000000000000
  0.3332420663457754  0.9628979125258752  0.5000000000000000
  0.2666417033138302  0.9629289966375723  0.5000000000000000
  0.4335077810018362  0.0345501738408913  0.5000000000000000
  0.5667643985009576  0.0350684807728001  0.5000000000000000
  0.5335917043296377  0.1064000372049065  0.5000000000000000
  0.4669656590235931  0.1060568361604624  0.5000000000000000
  0.4339002338941214  0.1775179559953912  0.5000000000000000
  0.5669607937714503  0.1779690898249768  0.5000000000000000
  0.5337736920279639  0.2492794299100183  0.5000000000000000
  0.4671767837826195  0.2489828127342832  0.5000000000000000
  0.4339480704497305  0.3203567546677561  0.5000000000000000
  0.5669831124878044  0.3208965094948724  0.5000000000000000
  0.5337350480523426  0.3922803425167132  0.5000000000000000
  0.4671476100742851  0.3920413877551283  0.5000000000000000
  0.4339643628814542  0.4632223205057215  0.5000000000000000
  0.5667283723744276  0.4639082096114251  0.5000000000000000
  0.5333609734824734  0.5352404593857045  0.5000000000000000
  0.4667368599798252  0.5348742363286121  0.5000000000000000
  0.4329813533260705  0.6060118228505402  0.5000000000000000
  0.5664628698998087  0.6068718410713103  0.5000000000000000
  0.5329732809578758  0.6780131859442875  0.5000000000000000
  0.4661487102687687  0.6774973994582112  0.5000000000000000
  0.4324744198603412  0.7485695275224131  0.5000000000000000
  0.5663088154194611  0.7495598278527424  0.5000000000000000
  0.5329162565150654  0.8207515341477460  0.5000000000000000
  0.4660662841449152  0.8201900316026780  0.5000000000000000
  0.4329561873600767  0.8915643144228866  0.5000000000000000
  0.5664545152043203  0.8922577121812409  0.5000000000000000
  0.5332575227288459  0.9635740209758055  0.5000000000000000
  0.4665302202388659  0.9631387487393539  0.5000000000000000
  0.6335020454411833  0.0355554162829606  0.5000000000000000
  0.7670838671839917  0.0363903615140657  0.5000000000000000
  0.7336913852705038  0.1075825491510614  0.5000000000000000
  0.6669530128303265  0.1070744115587416  0.5000000000000000
  0.6336384575815472  0.1783509933711400  0.5000000000000000
  0.7670269237809109  0.1791293761964141  0.5000000000000000
  0.7335373222313066  0.2502701703799062  0.5000000000000000
  0.6668648930650178  0.2499021071929093  0.5000000000000000
  0.6335398283954206  0.3212493981327000  0.5000000000000000
  0.7666391418250313  0.3219017499767958  0.5000000000000000
  0.7332716763240867  0.3932343783032195  0.5000000000000000
  0.6666264324734996  0.3929220394226931  0.5000000000000000
  0.6333734810846181  0.4642205129587893  0.5000000000000000
  0.7662653219048963  0.4648616430391357  0.5000000000000000
  0.7330170991480003  0.5362450884581236  0.5000000000000000
  0.6664605099188279  0.5358923333361645  0.5000000000000000
  0.6331354256712132  0.6072399164232749  0.5000000000000000
  0.7662260351689270  0.6078631581262215  0.5000000000000000
  0.7330388491643447  0.6791735097109921  0.5000000000000000
  0.6663615258726665  0.6787915317735056  0.5000000000000000
  0.6330469352681405  0.7500677372082407  0.5000000000000000
  0.7664082866681028  0.7507419578939079  0.5000000000000000
  0.7332356631341952  0.8220738306532454  0.5000000000000000
  0.6664979749155151  0.8215866082729875  0.5000000000000000
  0.6332354160246325  0.8928087162545495  0.5000000000000000
  0.7667423013548813  0.8935688075447246  0.5000000000000000
  0.7335452347446392  0.9648846217876041  0.5000000000000000
  0.6667645757151561  0.9643337591256724  0.5000000000000000
  0.8339340009826088  0.0369524280690072  0.5000000000000000
  0.9673343874769742  0.0375268320113804  0.5000000000000000
  0.9344565295017873  0.1093201721391068  0.5000000000000000
  0.8675257038920918  0.1085734400271434  0.5000000000000000
  0.8338513936104093  0.1796450942240995  0.5000000000000000
  0.9679998830896821  0.1811795920155959  0.5000000000000000
  0.9338799954126529  0.2517697528242593  0.5000000000000000
  0.8670190831436670  0.2511302893218925  0.5000000000000000
  0.8332635193380824  0.3222680789395227  0.5000000000000000
  0.9666538242221776  0.3236503928288670  0.5000000000000000
  0.9327799936182046  0.3943550697135905  0.5000000000000000
  0.8660359839387368  0.3939203541602794  0.5000000000000000
  0.8328525539350125  0.4651006423601700  0.5000000000000000
  0.9656872579342846  0.4657072147001671  0.5000000000000000
  0.9324325839364462  0.5369735699557907  0.5000000000000000
  0.8660515967586164  0.5367860312847910  0.5000000000000000
  0.8328228300518532  0.6081603911882567  0.5000000000000000
  0.9656564868333106  0.6084477218263800  0.5000000000000000
  0.9326906567732038  0.6797361037440126  0.5000000000000000
  0.8660995940917431  0.6796246934649446  0.5000000000000000
  0.8330341820988849  0.7510853578644117  0.5000000000000000
  0.9661642312851981  0.7513270126132312  0.5000000000000000
  0.9331661283340154  0.8228564376392029  0.5000000000000000
  0.8664917742953264  0.8225926980635023  0.5000000000000000
  0.8334694193909016  0.8940041704146111  0.5000000000000000
  0.9667577224889712  0.8942449647686530  0.5000000000000000
  0.9337957047832859  0.9660341370250976  0.5000000000000000
  0.8670439719311602  0.9655777064145639  0.5000000000000000
  0.1705061998006343  0.3194859060161264  0.5000000000000000
  0.0638078596779437  0.3964658853432468  0.5000000000000000
  0.1294935424019386  0.5376592700834948  0.5000000000000000
  0.2361921768251705  0.4606785375972606  0.5000000000000000
 
  0.00000000E+00  0.00000000E+00  0.00000000E+00
  0.00000000E+00  0.00000000E+00  0.00000000E+00
  0.00000000E+00  0.00000000E+00  0.00000000E+00
  0.00000000E+00  0.00000000E+00  0.00000000E+00
  0.00000000E+00  0.00000000E+00  0.00000000E+00
  0.00000000E+00  0.00000000E+00  0.00000000E+00
  0.00000000E+00  0.00000000E+00  0.00000000E+00
  0.00000000E+00  0.00000000E+00  0.00000000E+00
  0.00000000E+00  0.00000000E+00  0.00000000E+00
  0.00000000E+00  0.00000000E+00  0.00000000E+00
  0.00000000E+00  0.00000000E+00  0.00000000E+00
  0.00000000E+00  0.00000000E+00  0.00000000E+00
  0.00000000E+00  0.00000000E+00  0.00000000E+00
  0.00000000E+00  0.00000000E+00  0.00000000E+00
  0.00000000E+00  0.00000000E+00  0.00000000E+00
  0.00000000E+00  0.00000000E+00  0.00000000E+00
  0.00000000E+00  0.00000000E+00  0.00000000E+00
  0.00000000E+00  0.00000000E+00  0.00000000E+00
  0.00000000E+00  0.00000000E+00  0.00000000E+00
  0.00000000E+00  0.00000000E+00  0.00000000E+00
  0.00000000E+00  0.00000000E+00  0.00000000E+00
  0.00000000E+00  0.00000000E+00  0.00000000E+00
  0.00000000E+00  0.00000000E+00  0.00000000E+00
  0.00000000E+00  0.00000000E+00  0.00000000E+00
  0.00000000E+00  0.00000000E+00  0.00000000E+00
  0.00000000E+00  0.00000000E+00  0.00000000E+00
  0.00000000E+00  0.00000000E+00  0.00000000E+00
  0.00000000E+00  0.00000000E+00  0.00000000E+00
  0.00000000E+00  0.00000000E+00  0.00000000E+00
  0.00000000E+00  0.00000000E+00  0.00000000E+00
  0.00000000E+00  0.00000000E+00  0.00000000E+00
  0.00000000E+00  0.00000000E+00  0.00000000E+00
  0.00000000E+00  0.00000000E+00  0.00000000E+00
  0.00000000E+00  0.00000000E+00  0.00000000E+00
  0.00000000E+00  0.00000000E+00  0.00000000E+00
  0.00000000E+00  0.00000000E+00  0.00000000E+00
  0.00000000E+00  0.00000000E+00  0.00000000E+00
  0.00000000E+00  0.00000000E+00  0.00000000E+00
  0.00000000E+00  0.00000000E+00  0.00000000E+00
  0.00000000E+00  0.00000000E+00  0.00000000E+00
  0.00000000E+00  0.00000000E+00  0.00000000E+00
  0.00000000E+00  0.00000000E+00  0.00000000E+00
  0.00000000E+00  0.00000000E+00  0.00000000E+00
  0.00000000E+00  0.00000000E+00  0.00000000E+00
  0.00000000E+00  0.00000000E+00  0.00000000E+00
  0.00000000E+00  0.00000000E+00  0.00000000E+00
  0.00000000E+00  0.00000000E+00  0.00000000E+00
  0.00000000E+00  0.00000000E+00  0.00000000E+00
  0.00000000E+00  0.00000000E+00  0.00000000E+00
  0.00000000E+00  0.00000000E+00  0.00000000E+00
  0.00000000E+00  0.00000000E+00  0.00000000E+00
  0.00000000E+00  0.00000000E+00  0.00000000E+00
  0.00000000E+00  0.00000000E+00  0.00000000E+00
  0.00000000E+00  0.00000000E+00  0.00000000E+00
  0.00000000E+00  0.00000000E+00  0.00000000E+00
  0.00000000E+00  0.00000000E+00  0.00000000E+00
  0.00000000E+00  0.00000000E+00  0.00000000E+00
  0.00000000E+00  0.00000000E+00  0.00000000E+00
  0.00000000E+00  0.00000000E+00  0.00000000E+00
  0.00000000E+00  0.00000000E+00  0.00000000E+00
  0.00000000E+00  0.00000000E+00  0.00000000E+00
  0.00000000E+00  0.00000000E+00  0.00000000E+00
  0.00000000E+00  0.00000000E+00  0.00000000E+00
  0.00000000E+00  0.00000000E+00  0.00000000E+00
  0.00000000E+00  0.00000000E+00  0.00000000E+00
  0.00000000E+00  0.00000000E+00  0.00000000E+00
  0.00000000E+00  0.00000000E+00  0.00000000E+00
  0.00000000E+00  0.00000000E+00  0.00000000E+00
  0.00000000E+00  0.00000000E+00  0.00000000E+00
  0.00000000E+00  0.00000000E+00  0.00000000E+00
  0.00000000E+00  0.00000000E+00  0.00000000E+00
  0.00000000E+00  0.00000000E+00  0.00000000E+00
  0.00000000E+00  0.00000000E+00  0.00000000E+00
  0.00000000E+00  0.00000000E+00  0.00000000E+00
  0.00000000E+00  0.00000000E+00  0.00000000E+00
  0.00000000E+00  0.00000000E+00  0.00000000E+00
  0.00000000E+00  0.00000000E+00  0.00000000E+00
  0.00000000E+00  0.00000000E+00  0.00000000E+00
  0.00000000E+00  0.00000000E+00  0.00000000E+00
  0.00000000E+00  0.00000000E+00  0.00000000E+00
  0.00000000E+00  0.00000000E+00  0.00000000E+00
  0.00000000E+00  0.00000000E+00  0.00000000E+00
  0.00000000E+00  0.00000000E+00  0.00000000E+00
  0.00000000E+00  0.00000000E+00  0.00000000E+00
  0.00000000E+00  0.00000000E+00  0.00000000E+00
  0.00000000E+00  0.00000000E+00  0.00000000E+00
  0.00000000E+00  0.00000000E+00  0.00000000E+00
  0.00000000E+00  0.00000000E+00  0.00000000E+00
  0.00000000E+00  0.00000000E+00  0.00000000E+00
  0.00000000E+00  0.00000000E+00  0.00000000E+00
  0.00000000E+00  0.00000000E+00  0.00000000E+00
  0.00000000E+00  0.00000000E+00  0.00000000E+00
  0.00000000E+00  0.00000000E+00  0.00000000E+00
  0.00000000E+00  0.00000000E+00  0.00000000E+00
  0.00000000E+00  0.00000000E+00  0.00000000E+00
  0.00000000E+00  0.00000000E+00  0.00000000E+00
  0.00000000E+00  0.00000000E+00  0.00000000E+00
  0.00000000E+00  0.00000000E+00  0.00000000E+00
  0.00000000E+00  0.00000000E+00  0.00000000E+00
  0.00000000E+00  0.00000000E+00  0.00000000E+00
  0.00000000E+00  0.00000000E+00  0.00000000E+00
  0.00000000E+00  0.00000000E+00  0.00000000E+00
  0.00000000E+00  0.00000000E+00  0.00000000E+00
  0.00000000E+00  0.00000000E+00  0.00000000E+00
  0.00000000E+00  0.00000000E+00  0.00000000E+00
  0.00000000E+00  0.00000000E+00  0.00000000E+00
  0.00000000E+00  0.00000000E+00  0.00000000E+00
  0.00000000E+00  0.00000000E+00  0.00000000E+00
  0.00000000E+00  0.00000000E+00  0.00000000E+00
  0.00000000E+00  0.00000000E+00  0.00000000E+00
  0.00000000E+00  0.00000000E+00  0.00000000E+00
  0.00000000E+00  0.00000000E+00  0.00000000E+00
  0.00000000E+00  0.00000000E+00  0.00000000E+00
  0.00000000E+00  0.00000000E+00  0.00000000E+00
  0.00000000E+00  0.00000000E+00  0.00000000E+00
  0.00000000E+00  0.00000000E+00  0.00000000E+00
  0.00000000E+00  0.00000000E+00  0.00000000E+00
  0.00000000E+00  0.00000000E+00  0.00000000E+00
  0.00000000E+00  0.00000000E+00  0.00000000E+00
  0.00000000E+00  0.00000000E+00  0.00000000E+00
  0.00000000E+00  0.00000000E+00  0.00000000E+00
  0.00000000E+00  0.00000000E+00  0.00000000E+00
  0.00000000E+00  0.00000000E+00  0.00000000E+00
  0.00000000E+00  0.00000000E+00  0.00000000E+00
  0.00000000E+00  0.00000000E+00  0.00000000E+00
  0.00000000E+00  0.00000000E+00  0.00000000E+00
  0.00000000E+00  0.00000000E+00  0.00000000E+00
  0.00000000E+00  0.00000000E+00  0.00000000E+00
  0.00000000E+00  0.00000000E+00  0.00000000E+00
  0.00000000E+00  0.00000000E+00  0.00000000E+00
  0.00000000E+00  0.00000000E+00  0.00000000E+00
  0.00000000E+00  0.00000000E+00  0.00000000E+00
  0.00000000E+00  0.00000000E+00  0.00000000E+00
  0.00000000E+00  0.00000000E+00  0.00000000E+00
  0.00000000E+00  0.00000000E+00  0.00000000E+00
  0.00000000E+00  0.00000000E+00  0.00000000E+00
  0.00000000E+00  0.00000000E+00  0.00000000E+00
  0.00000000E+00  0.00000000E+00  0.00000000E+00
