 C  N Fe                                
   1.00000000000000     
    21.4657208748990485    0.0000000000000000    0.0000000000000000
     0.0000000000000000   17.3526572834225448    0.0000000000000000
     0.0000000000000000    0.0000000000000000   19.9975756782801639
   C    N    Fe
   136     2     1
Direct
  0.0341358040955555  0.0380468584574274  0.4998087769534507
  0.1668591022269723  0.0367868217254141  0.4996565203366785
  0.1340662265332853  0.1095248649630989  0.4989374621859284
  0.0675090189077281  0.1101530119745604  0.4992719542932207
  0.0347110014485352  0.1830772432169994  0.4998475661968982
  0.1675668557711063  0.1817049045302639  0.4975692633505844
  0.1353876459402628  0.2557178326625689  0.4966551158727341
  0.0680681965290191  0.2555086932316186  0.5004015643102449
  0.0336077121780178  0.3274996252776248  0.5037332049324732
  0.1709579908133065  0.3262196050886672  0.4952178101114981
  0.0291118178964993  0.4647249439945469  0.5024790371787731
  0.1290461751470175  0.5309232520541869  0.4952178101114981
  0.0634658724638797  0.5359447379347912  0.4980507304968853
  0.0312121299744845  0.6077034378785413  0.4986153392972597
  0.1646165200200613  0.6014250244802852  0.4966551158727341
  0.1324373101892178  0.6754379526125973  0.4975692633505844
  0.0657417582414226  0.6780484912130120  0.4978800169996305
  0.0329327533891686  0.7503481829203551  0.4990230374945384
  0.1659379394270388  0.7476179921797552  0.4989374621859284
  0.1331450637333518  0.8203560354174400  0.4996565203366785
  0.0664638821610453  0.8216890535202950  0.4996433873768353
  0.0335777795686241  0.8938645387380575  0.5002011588604987
  0.1664378365194992  0.8922254010714497  0.5001604964857975
  0.1335663294408249  0.9649174560714116  0.5001604964857975
  0.0669959163061478  0.9657467243034858  0.5001498559213147
  0.2335319518786321  0.0354538036225591  0.4996433873768353
  0.3666468581353257  0.0344802599407146  0.5002608675508995
  0.3337356400742593  0.1061263983645517  0.4997977054760057
  0.2670630806505088  0.1067946742224990  0.4990230374945384
  0.2342540757982619  0.1790943659298492  0.4978800169996305
  0.3677555640573189  0.1772746242859924  0.4998661730736345
  0.3352259739957191  0.2487295154141762  0.4996379880771755
  0.2687837040651928  0.2494394192643199  0.4986153392972597
  0.2365299615757976  0.3211981192080628  0.4980507304968853
  0.3687157512948218  0.3197913602852438  0.4993812600494891
  0.3362834889015147  0.3916347123648549  0.5001173376374624
  0.2708840161431780  0.3924179131483072  0.5024790371787731
  0.3684868298299051  0.4631103829695888  0.5006250765280384
  0.3333642887259529  0.5329132664210903  0.5009331045141465
  0.2663881218616595  0.5296432318652293  0.5037332049324732
  0.2319276375106583  0.6016341639112426  0.5004015643102449
  0.3660724425338060  0.6050837089551990  0.4998665114174230
  0.3323219600540099  0.6759485486450103  0.5000764027697713
  0.2652848325911421  0.6740656139258618  0.4998475661968982
  0.2324868151319492  0.7469898451683008  0.4992719542932207
  0.3656945837269490  0.7479151595371505  0.4999212258916472
  0.3326262592773830  0.8195940130531909  0.4999852472476860
  0.2658600299441218  0.8190959986854267  0.4998087769534507
  0.2329999177335296  0.8913961328393754  0.5001498559213147
  0.3660888776378002  0.8912198408194598  0.5001755009007098
  0.3330614987054261  0.9630350565488186  0.5002725899320879
  0.2664180544710533  0.9632783184048037  0.5002011588604987
  0.4334051729542594  0.0345928850834269  0.5003047540488339
  0.5668638701042852  0.0350352669834564  0.5000254824389074
  0.5337445313997620  0.1063074730390525  0.5001128266672268
  0.4671278457646793  0.1058871085502702  0.5002011517754426
  0.4342601575643812  0.1773717139588200  0.5000399960134843
  0.5671905655964693  0.1777998747608365  0.5000992205380115
  0.5341538341298602  0.2491545631984096  0.4999916233550010
  0.4677030864742875  0.2487431498173578  0.4998580405492916
  0.4348239037353352  0.3201680468206902  0.4995734846734692
  0.5672281651463251  0.3207752649510454  0.4999651613299108
  0.5340646892159597  0.3922688320455379  0.4997598017865812
  0.4677735865019343  0.3919712619482496  0.4996533485860368
  0.4346638343540903  0.4634752421956705  0.4999161401589447
  0.5669552427406614  0.4640414781007109  0.4998800396564604
  0.5336196597724125  0.5354520937397638  0.4997197330374021
  0.4671514053443673  0.5351464708814149  0.4996790340848847
  0.4329800360284395  0.6059041851114202  0.4995938392394734
  0.5665265003088820  0.6070572662190798  0.4998586668919387
  0.5329034769162959  0.6781130185959725  0.4998517964410709
  0.4661076613853083  0.6775229664875226  0.4996931068535844
  0.4325261815109442  0.7486674379031157  0.4998016793370539
  0.5662143804129300  0.7496892577458780  0.4999800968083719
  0.5328505206126337  0.8208803054087142  0.4999349155833031
  0.4660306174783244  0.8202953583434578  0.4999041327095313
  0.4328522711607974  0.8916318500222999  0.5000980892102547
  0.5664179439003263  0.8923385553599843  0.4999606087994621
  0.5332208098960294  0.9636391832260287  0.5000301171930630
  0.4664547732091364  0.9631755712058450  0.5001775935684805
  0.6335902445488557  0.0355228169922626  0.4999894314743685
  0.7671536453476904  0.0362625517341399  0.4999349155833031
  0.7337897855473869  0.1074535993969761  0.4999800968083719
  0.6670778323392383  0.1069747951332545  0.5000497144616673
  0.6337596717315677  0.1782053782893414  0.5000953095038838
  0.7671006890440282  0.1790298385468887  0.4998517964410709
  0.7334776656514350  0.2500855909237814  0.4998586668919387
  0.6669083342518434  0.2497493565607485  0.5000557218678594
  0.6336513722860460  0.3211160061192899  0.5001075285422800
  0.7663845061879115  0.3216907634030903  0.4997197330374021
  0.7330489232196555  0.3931013790421432  0.4998800396564604
  0.6666200956237773  0.3928426455968079  0.5001081607801581
  0.6333757384159000  0.4643002115460462  0.5001081607801581
  0.7659394767443644  0.4648740250973162  0.4997598017865812
  0.7327760008139919  0.5363675921918087  0.4999651613299108
  0.6663444617536314  0.5360268510235642  0.5001075285422800
  0.6330874997878340  0.6073935005821127  0.5000557218678594
  0.7658503318304639  0.6079882939444516  0.4999916233550010
  0.7328136003638477  0.6793429823820247  0.5000992205380115
  0.6662361623081097  0.6789374788535198  0.5000953095038838
  0.6329180017004390  0.7501680620095996  0.5000497144616673
  0.7662596345605621  0.7508353841038016  0.5001128266672268
  0.7331402958560318  0.8221075901593977  0.5000254824389074
  0.6664055894908216  0.8216200401505915  0.4999894314743685
  0.6331807612049332  0.8928409010886540  0.4999519381714279
  0.7667833560642947  0.8935036739168325  0.5000301171930630
  0.7335862220599907  0.9648043017828769  0.4999606087994621
  0.6668150728347442  0.9643019560542072  0.4999519381714279
  0.8339652165613529  0.0368474987993963  0.4999041327095313
  0.9673779066829411  0.0375488440896632  0.4999852472476860
  0.9343095822333751  0.1092276976057036  0.4999212258916472
  0.8674696525287331  0.1084754192397384  0.4998016793370539
  0.8338881726543690  0.1796198906553386  0.4996931068535844
  0.9676822059063142  0.1811943084978509  0.5000764027697713
  0.9339317234265181  0.2520591481876622  0.4998665114174230
  0.8670157980112378  0.2512386720314410  0.4995938392394734
  0.8328444286953101  0.3219963862614392  0.4996790340848847
  0.9666398772343712  0.3242295907217638  0.5009331045141465
  0.9315173361304190  0.3940324741732653  0.5006250765280384
  0.8653319996855799  0.3936676149471836  0.4999161401589447
  0.8322222475377430  0.4651715951946045  0.4996533485860368
  0.9637206770588094  0.4655081447779992  0.5001173376374624
  0.9312884146655023  0.5373514968576103  0.4993812600494891
  0.8651719303043421  0.5369748103221639  0.4995734846734692
  0.8322927475653898  0.6083997073255034  0.4998580405492916
  0.9647781919646050  0.6084133417286850  0.4996379880771755
  0.9322486019030052  0.6798682328568688  0.4998661730736345
  0.8657356764752961  0.6797711431840412  0.5000399960134843
  0.8328679882749981  0.7512557485925839  0.5002011517754426
  0.9662685258860648  0.7510164587783024  0.4997977054760057
  0.9333573078249984  0.8226625972021395  0.5002608675508995
  0.8665906610854179  0.8225499720594271  0.5003047540488339
  0.8335410608305409  0.8939672859370162  0.5001775935684805
  0.9669426672548980  0.8941078005940426  0.5002725899320879
  0.9339152883225239  0.9659230163234014  0.5001755009007098
  0.8671435628788799  0.9655110071205613  0.5000980892102547
  0.0635820903553892  0.3984293154395004  0.5094681875483786
  0.2364137436842881  0.4587135417033537  0.5094681875483786
  0.1500020829801585  0.4285714285714306  0.5235822916478696
 
  0.00000000E+00  0.00000000E+00  0.00000000E+00
  0.00000000E+00  0.00000000E+00  0.00000000E+00
  0.00000000E+00  0.00000000E+00  0.00000000E+00
  0.00000000E+00  0.00000000E+00  0.00000000E+00
  0.00000000E+00  0.00000000E+00  0.00000000E+00
  0.00000000E+00  0.00000000E+00  0.00000000E+00
  0.00000000E+00  0.00000000E+00  0.00000000E+00
  0.00000000E+00  0.00000000E+00  0.00000000E+00
  0.00000000E+00  0.00000000E+00  0.00000000E+00
  0.00000000E+00  0.00000000E+00  0.00000000E+00
  0.00000000E+00  0.00000000E+00  0.00000000E+00
  0.00000000E+00  0.00000000E+00  0.00000000E+00
  0.00000000E+00  0.00000000E+00  0.00000000E+00
  0.00000000E+00  0.00000000E+00  0.00000000E+00
  0.00000000E+00  0.00000000E+00  0.00000000E+00
  0.00000000E+00  0.00000000E+00  0.00000000E+00
  0.00000000E+00  0.00000000E+00  0.00000000E+00
  0.00000000E+00  0.00000000E+00  0.00000000E+00
  0.00000000E+00  0.00000000E+00  0.00000000E+00
  0.00000000E+00  0.00000000E+00  0.00000000E+00
  0.00000000E+00  0.00000000E+00  0.00000000E+00
  0.00000000E+00  0.00000000E+00  0.00000000E+00
  0.00000000E+00  0.00000000E+00  0.00000000E+00
  0.00000000E+00  0.00000000E+00  0.00000000E+00
  0.00000000E+00  0.00000000E+00  0.00000000E+00
  0.00000000E+00  0.00000000E+00  0.00000000E+00
  0.00000000E+00  0.00000000E+00  0.00000000E+00
  0.00000000E+00  0.00000000E+00  0.00000000E+00
  0.00000000E+00  0.00000000E+00  0.00000000E+00
  0.00000000E+00  0.00000000E+00  0.00000000E+00
  0.00000000E+00  0.00000000E+00  0.00000000E+00
  0.00000000E+00  0.00000000E+00  0.00000000E+00
  0.00000000E+00  0.00000000E+00  0.00000000E+00
  0.00000000E+00  0.00000000E+00  0.00000000E+00
  0.00000000E+00  0.00000000E+00  0.00000000E+00
  0.00000000E+00  0.00000000E+00  0.00000000E+00
  0.00000000E+00  0.00000000E+00  0.00000000E+00
  0.00000000E+00  0.00000000E+00  0.00000000E+00
  0.00000000E+00  0.00000000E+00  0.00000000E+00
  0.00000000E+00  0.00000000E+00  0.00000000E+00
  0.00000000E+00  0.00000000E+00  0.00000000E+00
  0.00000000E+00  0.00000000E+00  0.00000000E+00
  0.00000000E+00  0.00000000E+00  0.00000000E+00
  0.00000000E+00  0.00000000E+00  0.00000000E+00
  0.00000000E+00  0.00000000E+00  0.00000000E+00
  0.00000000E+00  0.00000000E+00  0.00000000E+00
  0.00000000E+00  0.00000000E+00  0.00000000E+00
  0.00000000E+00  0.00000000E+00  0.00000000E+00
  0.00000000E+00  0.00000000E+00  0.00000000E+00
  0.00000000E+00  0.00000000E+00  0.00000000E+00
  0.00000000E+00  0.00000000E+00  0.00000000E+00
  0.00000000E+00  0.00000000E+00  0.00000000E+00
  0.00000000E+00  0.00000000E+00  0.00000000E+00
  0.00000000E+00  0.00000000E+00  0.00000000E+00
  0.00000000E+00  0.00000000E+00  0.00000000E+00
  0.00000000E+00  0.00000000E+00  0.00000000E+00
  0.00000000E+00  0.00000000E+00  0.00000000E+00
  0.00000000E+00  0.00000000E+00  0.00000000E+00
  0.00000000E+00  0.00000000E+00  0.00000000E+00
  0.00000000E+00  0.00000000E+00  0.00000000E+00
  0.00000000E+00  0.00000000E+00  0.00000000E+00
  0.00000000E+00  0.00000000E+00  0.00000000E+00
  0.00000000E+00  0.00000000E+00  0.00000000E+00
  0.00000000E+00  0.00000000E+00  0.00000000E+00
  0.00000000E+00  0.00000000E+00  0.00000000E+00
  0.00000000E+00  0.00000000E+00  0.00000000E+00
  0.00000000E+00  0.00000000E+00  0.00000000E+00
  0.00000000E+00  0.00000000E+00  0.00000000E+00
  0.00000000E+00  0.00000000E+00  0.00000000E+00
  0.00000000E+00  0.00000000E+00  0.00000000E+00
  0.00000000E+00  0.00000000E+00  0.00000000E+00
  0.00000000E+00  0.00000000E+00  0.00000000E+00
  0.00000000E+00  0.00000000E+00  0.00000000E+00
  0.00000000E+00  0.00000000E+00  0.00000000E+00
  0.00000000E+00  0.00000000E+00  0.00000000E+00
  0.00000000E+00  0.00000000E+00  0.00000000E+00
  0.00000000E+00  0.00000000E+00  0.00000000E+00
  0.00000000E+00  0.00000000E+00  0.00000000E+00
  0.00000000E+00  0.00000000E+00  0.00000000E+00
  0.00000000E+00  0.00000000E+00  0.00000000E+00
  0.00000000E+00  0.00000000E+00  0.00000000E+00
  0.00000000E+00  0.00000000E+00  0.00000000E+00
  0.00000000E+00  0.00000000E+00  0.00000000E+00
  0.00000000E+00  0.00000000E+00  0.00000000E+00
  0.00000000E+00  0.00000000E+00  0.00000000E+00
  0.00000000E+00  0.00000000E+00  0.00000000E+00
  0.00000000E+00  0.00000000E+00  0.00000000E+00
  0.00000000E+00  0.00000000E+00  0.00000000E+00
  0.00000000E+00  0.00000000E+00  0.00000000E+00
  0.00000000E+00  0.00000000E+00  0.00000000E+00
  0.00000000E+00  0.00000000E+00  0.00000000E+00
  0.00000000E+00  0.00000000E+00  0.00000000E+00
  0.00000000E+00  0.00000000E+00  0.00000000E+00
  0.00000000E+00  0.00000000E+00  0.00000000E+00
  0.00000000E+00  0.00000000E+00  0.00000000E+00
  0.00000000E+00  0.00000000E+00  0.00000000E+00
  0.00000000E+00  0.00000000E+00  0.00000000E+00
  0.00000000E+00  0.00000000E+00  0.00000000E+00
  0.00000000E+00  0.00000000E+00  0.00000000E+00
  0.00000000E+00  0.00000000E+00  0.00000000E+00
  0.00000000E+00  0.00000000E+00  0.00000000E+00
  0.00000000E+00  0.00000000E+00  0.00000000E+00
  0.00000000E+00  0.00000000E+00  0.00000000E+00
  0.00000000E+00  0.00000000E+00  0.00000000E+00
  0.00000000E+00  0.00000000E+00  0.00000000E+00
  0.00000000E+00  0.00000000E+00  0.00000000E+00
  0.00000000E+00  0.00000000E+00  0.00000000E+00
  0.00000000E+00  0.00000000E+00  0.00000000E+00
  0.00000000E+00  0.00000000E+00  0.00000000E+00
  0.00000000E+00  0.00000000E+00  0.00000000E+00
  0.00000000E+00  0.00000000E+00  0.00000000E+00
  0.00000000E+00  0.00000000E+00  0.00000000E+00
  0.00000000E+00  0.00000000E+00  0.00000000E+00
  0.00000000E+00  0.00000000E+00  0.00000000E+00
  0.00000000E+00  0.00000000E+00  0.00000000E+00
  0.00000000E+00  0.00000000E+00  0.00000000E+00
  0.00000000E+00  0.00000000E+00  0.00000000E+00
  0.00000000E+00  0.00000000E+00  0.00000000E+00
  0.00000000E+00  0.00000000E+00  0.00000000E+00
  0.00000000E+00  0.00000000E+00  0.00000000E+00
  0.00000000E+00  0.00000000E+00  0.00000000E+00
  0.00000000E+00  0.00000000E+00  0.00000000E+00
  0.00000000E+00  0.00000000E+00  0.00000000E+00
  0.00000000E+00  0.00000000E+00  0.00000000E+00
  0.00000000E+00  0.00000000E+00  0.00000000E+00
  0.00000000E+00  0.00000000E+00  0.00000000E+00
  0.00000000E+00  0.00000000E+00  0.00000000E+00
  0.00000000E+00  0.00000000E+00  0.00000000E+00
  0.00000000E+00  0.00000000E+00  0.00000000E+00
  0.00000000E+00  0.00000000E+00  0.00000000E+00
  0.00000000E+00  0.00000000E+00  0.00000000E+00
  0.00000000E+00  0.00000000E+00  0.00000000E+00
  0.00000000E+00  0.00000000E+00  0.00000000E+00
  0.00000000E+00  0.00000000E+00  0.00000000E+00
  0.00000000E+00  0.00000000E+00  0.00000000E+00
  0.00000000E+00  0.00000000E+00  0.00000000E+00
  0.00000000E+00  0.00000000E+00  0.00000000E+00
  0.00000000E+00  0.00000000E+00  0.00000000E+00
  0.00000000E+00  0.00000000E+00  0.00000000E+00
