 C  N Fe                                
   1.00000000000000     
    21.4657208748990485    0.0000000000000000    0.0000000000000000
     0.0000000000000000   17.3526572834225448    0.0000000000000000
     0.0000000000000000    0.0000000000000000   19.9975756782801639
   C    N    Fe
   137     1     1
Direct
  0.0340306674545445  0.0373214559112469  0.4994524644537179
  0.1668859629371866  0.0365151945312263  0.4992343964710955
  0.1340326491325499  0.1089750577670117  0.4988513333506859
  0.0674386860876410  0.1090946770336174  0.4989487389718406
  0.0344780822791861  0.1814369470021404  0.4991958845793363
  0.1674873304739037  0.1811891932047516  0.4984889857095496
  0.1350517901276902  0.2547589038919469  0.4986281068639116
  0.0676393016324610  0.2533288269975458  0.5002465031936083
  0.0340583383278172  0.3251012391354422  0.5024801490670967
  0.1699028957211226  0.3258039868163394  0.4995340084644369
  0.0658061914030554  0.3975258501120038  0.5084308024944093
  0.0297833392882580  0.4658280112011255  0.5019078330849567
  0.1291197701958851  0.5319269941377485  0.4977717162329327
  0.0634612361297471  0.5373056997453673  0.4984811186085949
  0.0312621271929387  0.6086290308235007  0.4982559071653725
  0.1648705713553014  0.6018246420896034  0.4974293922502326
  0.1325636936007726  0.6758920557306709  0.4975391407522736
  0.0658921574181193  0.6786477652325047  0.4976047417182059
  0.0329882303457296  0.7506179086082483  0.4985998743463682
  0.1660970945894462  0.7478166795052914  0.4985424923634980
  0.1332520334547098  0.8204487077635463  0.4990288812727144
  0.0665575570283536  0.8217517374238099  0.4991289779092298
  0.0335656411133343  0.8936795664164379  0.4997787359294534
  0.1665612570557187  0.8922255841082958  0.4994990398002628
  0.1335976163152992  0.9646841937738131  0.4995515524913543
  0.0669985124189623  0.9653040190142761  0.4996635202644910
  0.2335533982426128  0.0354353560764764  0.4993333555786421
  0.3666104783921327  0.0346990094574409  0.4999347755669277
  0.3336028041572234  0.1063087148849675  0.4995536006275287
  0.2669879433912357  0.1068531274528155  0.4990816001341614
  0.2341069788376018  0.1790813857098428  0.4986685785669422
  0.3674772234580459  0.1775453995009642  0.4995759406038118
  0.3348174016275678  0.2489996061598845  0.4996893558914692
  0.2683185747097099  0.2497348391157672  0.4994021591055144
  0.2356677035732559  0.3215247144246476  0.5000074381022515
  0.3684334239748566  0.3200399258869311  0.4995485439865561
  0.3360197595565921  0.3918298139594114  0.5002715388998951
  0.2703617707255930  0.3929764397827924  0.5026970028631297
  0.3683691934580295  0.4632863179006463  0.5004783394648342
  0.3336495364269751  0.5333346797810137  0.5006795232713657
  0.2666616127022294  0.5302312475559674  0.5029790247877628
  0.2321996360248662  0.6021174152848445  0.5002227499066976
  0.3663335270613430  0.6053856600804934  0.4997184812782294
  0.3325430131941900  0.6762222236884199  0.4998653898179413
  0.2655294769435628  0.6744625421306054  0.4996214540411401
  0.2326842132020346  0.7472512337377069  0.4990354196519107
  0.3658753227150200  0.7481363853398690  0.4998470974864802
  0.3327568608347846  0.8197764254991355  0.4998485969860056
  0.2660103444249984  0.8192973794593428  0.4994980545300649
  0.2331270301683617  0.8915213092119245  0.4995928501991571
  0.3661675785272109  0.8914224325302200  0.5000873456679287
  0.3331094578392779  0.9632115297151174  0.4999704075680640
  0.2664892054395480  0.9633607408509590  0.4997153722490779
  0.4333456068638881  0.0347913522655716  0.5000838977139210
  0.5667490368527979  0.0351136179933462  0.5002413854738066
  0.5336003642357383  0.1064125372986879  0.5000379381435138
  0.4669865983096244  0.1061249906706081  0.4998890087186965
  0.4340350039360672  0.1775942447980370  0.4996454674992989
  0.5670877667189345  0.1778937962186191  0.5000260793188431
  0.5340333550340901  0.2492412217737510  0.4997491540400745
  0.4675543711513441  0.2489110084180979  0.4995497164334424
  0.4346226255253143  0.3203307942369165  0.4994746335958169
  0.5671795591565001  0.3208430374193512  0.4997846279314260
  0.5340238621127185  0.3923042181236411  0.4996341264335271
  0.4676659622800088  0.3920708615317707  0.4995971993453310
  0.4346509790511135  0.4635633962689667  0.4998406156863666
  0.5669840884380690  0.4640251544854266  0.4997397164446369
  0.5337042995039880  0.5354510102658665  0.4996431393870040
  0.4672084039074136  0.5352008856019879  0.4996199071506169
  0.4331810476253750  0.6060578334899063  0.4995084360076376
  0.5666521970925729  0.6070446209880132  0.4997268956126817
  0.5330544136461413  0.6781506881611250  0.4996782103627737
  0.4662945141094141  0.6776657528608467  0.4996280922499494
  0.4326958334316089  0.7488161208010951  0.4998467773934792
  0.5662991096230101  0.7497237012745330  0.4997767915117919
  0.5329088355920248  0.8209271792713295  0.4999761223496648
  0.4661306063084254  0.8204473128292804  0.5000583500694873
  0.4329023154060110  0.8917874018112215  0.5002287699574666
  0.5664037679857330  0.8924047902468288  0.5000680205302572
  0.5331642077911951  0.9637050439295294  0.5002688173351331
  0.4664291292989446  0.9633618526891112  0.5002825849750110
  0.6334707376336652  0.0355514109431567  0.5001935395091763
  0.7669760109367942  0.0362436698118103  0.4998278553821507
  0.7336385737383893  0.1074574091036737  0.4998695170869354
  0.6669542896071334  0.1069962278820284  0.5001728827508742
  0.6336812701037928  0.1782610459472878  0.5002257920471038
  0.7669792846119989  0.1789695815985581  0.4996968700733646
  0.7334817126614013  0.2501209912874032  0.4998856089407440
  0.6668966608814131  0.2497980573577294  0.5001399274134357
  0.6336330985595424  0.3211521989499886  0.5000263496483157
  0.7665056019751617  0.3216961484046053  0.4998045659702939
  0.7331320462823925  0.3930766125142640  0.5000153940087273
  0.6666754355844233  0.3928518495891780  0.5000288263307766
  0.6334549390611457  0.4642916830628749  0.4999643246889889
  0.7661279778972840  0.4647855896893205  0.5000755974477329
  0.7329225938771629  0.5362903137878874  0.5002219135428163
  0.6664645374204952  0.5359819871200671  0.5001182975836826
  0.6332104097530049  0.6073638270729376  0.4999995270291109
  0.7659365533976015  0.6080008666278260  0.5002896669669212
  0.7328623340395808  0.6793535586911261  0.5002918507879741
  0.6663193666922282  0.6789453668086054  0.5000592223723999
  0.6329931254122272  0.7501929578226765  0.4998438818936748
  0.7662394371179388  0.7508670384537695  0.5003779742887602
  0.7331118422907323  0.8221257742358645  0.5001745975180967
  0.6664147263967308  0.8216754397042507  0.4998885357396503
  0.6331431031807355  0.8928805047352171  0.4998951472805615
  0.7666968510763112  0.8935143705722055  0.5002124979515585
  0.7334480795740177  0.9647964114248424  0.4999678359505140
  0.6666958761896566  0.9643213584891015  0.4999816321661896
  0.8337714805755567  0.0366532968893338  0.4997680330805281
  0.9672267580593257  0.0371152860175812  0.4996977494366490
  0.9340402402123900  0.1087216947274428  0.4994185344103101
  0.8672344366644751  0.1081922879939015  0.4994609638773895
  0.8337282637789016  0.1794015801076867  0.4993941745557038
  0.9674257375273783  0.1804814956954530  0.4992653337083865
  0.9338045121071659  0.2516069209452212  0.4992239263928298
  0.8669260697412398  0.2509705847997381  0.4992725004807355
  0.8330216324398450  0.3219323054236867  0.4996034575752617
  0.9669126071707055  0.3233871094228888  0.5001407985518327
  0.9321458125453788  0.3938020367237556  0.5003524830199240
  0.8658354568760487  0.3935364424791459  0.4998824797022507
  0.8324934478967165  0.4650219859202664  0.4999390208953329
  0.9641318193463633  0.4657599686719038  0.5003610938189595
  0.9313951182311015  0.5373164671471713  0.4996604514130212
  0.8652662926457069  0.5369493460737971  0.4998347062445347
  0.8323576889047217  0.6083764121690365  0.5001101649719004
  0.9648078733412433  0.6086191352288992  0.4993307815399959
  0.9322266992292896  0.6799520432399930  0.4996405229161596
  0.8657355486651355  0.6798133198059588  0.5001827604909153
  0.8328235244535520  0.7512282955023935  0.5004833375276974
  0.9662784830915001  0.7510381488871332  0.4994944480912338
  0.9333018725629216  0.8225709851934369  0.5002246458873003
  0.8665363400702404  0.8224928948636219  0.5005475512386326
  0.8334390207572469  0.8938624151785959  0.5004522663063753
  0.9669132654724635  0.8939146467267065  0.5001642516448044
  0.9337820884636230  0.9655855376522879  0.5001480946913119
  0.8670176600885497  0.9653303239839630  0.5001848032721128
  0.2367755820282156  0.4596736984342868  0.5079396227727955
  0.1481820444432103  0.4289154449558552  0.5287704512615363
 
  0.00000000E+00  0.00000000E+00  0.00000000E+00
  0.00000000E+00  0.00000000E+00  0.00000000E+00
  0.00000000E+00  0.00000000E+00  0.00000000E+00
  0.00000000E+00  0.00000000E+00  0.00000000E+00
  0.00000000E+00  0.00000000E+00  0.00000000E+00
  0.00000000E+00  0.00000000E+00  0.00000000E+00
  0.00000000E+00  0.00000000E+00  0.00000000E+00
  0.00000000E+00  0.00000000E+00  0.00000000E+00
  0.00000000E+00  0.00000000E+00  0.00000000E+00
  0.00000000E+00  0.00000000E+00  0.00000000E+00
  0.00000000E+00  0.00000000E+00  0.00000000E+00
  0.00000000E+00  0.00000000E+00  0.00000000E+00
  0.00000000E+00  0.00000000E+00  0.00000000E+00
  0.00000000E+00  0.00000000E+00  0.00000000E+00
  0.00000000E+00  0.00000000E+00  0.00000000E+00
  0.00000000E+00  0.00000000E+00  0.00000000E+00
  0.00000000E+00  0.00000000E+00  0.00000000E+00
  0.00000000E+00  0.00000000E+00  0.00000000E+00
  0.00000000E+00  0.00000000E+00  0.00000000E+00
  0.00000000E+00  0.00000000E+00  0.00000000E+00
  0.00000000E+00  0.00000000E+00  0.00000000E+00
  0.00000000E+00  0.00000000E+00  0.00000000E+00
  0.00000000E+00  0.00000000E+00  0.00000000E+00
  0.00000000E+00  0.00000000E+00  0.00000000E+00
  0.00000000E+00  0.00000000E+00  0.00000000E+00
  0.00000000E+00  0.00000000E+00  0.00000000E+00
  0.00000000E+00  0.00000000E+00  0.00000000E+00
  0.00000000E+00  0.00000000E+00  0.00000000E+00
  0.00000000E+00  0.00000000E+00  0.00000000E+00
  0.00000000E+00  0.00000000E+00  0.00000000E+00
  0.00000000E+00  0.00000000E+00  0.00000000E+00
  0.00000000E+00  0.00000000E+00  0.00000000E+00
  0.00000000E+00  0.00000000E+00  0.00000000E+00
  0.00000000E+00  0.00000000E+00  0.00000000E+00
  0.00000000E+00  0.00000000E+00  0.00000000E+00
  0.00000000E+00  0.00000000E+00  0.00000000E+00
  0.00000000E+00  0.00000000E+00  0.00000000E+00
  0.00000000E+00  0.00000000E+00  0.00000000E+00
  0.00000000E+00  0.00000000E+00  0.00000000E+00
  0.00000000E+00  0.00000000E+00  0.00000000E+00
  0.00000000E+00  0.00000000E+00  0.00000000E+00
  0.00000000E+00  0.00000000E+00  0.00000000E+00
  0.00000000E+00  0.00000000E+00  0.00000000E+00
  0.00000000E+00  0.00000000E+00  0.00000000E+00
  0.00000000E+00  0.00000000E+00  0.00000000E+00
  0.00000000E+00  0.00000000E+00  0.00000000E+00
  0.00000000E+00  0.00000000E+00  0.00000000E+00
  0.00000000E+00  0.00000000E+00  0.00000000E+00
  0.00000000E+00  0.00000000E+00  0.00000000E+00
  0.00000000E+00  0.00000000E+00  0.00000000E+00
  0.00000000E+00  0.00000000E+00  0.00000000E+00
  0.00000000E+00  0.00000000E+00  0.00000000E+00
  0.00000000E+00  0.00000000E+00  0.00000000E+00
  0.00000000E+00  0.00000000E+00  0.00000000E+00
  0.00000000E+00  0.00000000E+00  0.00000000E+00
  0.00000000E+00  0.00000000E+00  0.00000000E+00
  0.00000000E+00  0.00000000E+00  0.00000000E+00
  0.00000000E+00  0.00000000E+00  0.00000000E+00
  0.00000000E+00  0.00000000E+00  0.00000000E+00
  0.00000000E+00  0.00000000E+00  0.00000000E+00
  0.00000000E+00  0.00000000E+00  0.00000000E+00
  0.00000000E+00  0.00000000E+00  0.00000000E+00
  0.00000000E+00  0.00000000E+00  0.00000000E+00
  0.00000000E+00  0.00000000E+00  0.00000000E+00
  0.00000000E+00  0.00000000E+00  0.00000000E+00
  0.00000000E+00  0.00000000E+00  0.00000000E+00
  0.00000000E+00  0.00000000E+00  0.00000000E+00
  0.00000000E+00  0.00000000E+00  0.00000000E+00
  0.00000000E+00  0.00000000E+00  0.00000000E+00
  0.00000000E+00  0.00000000E+00  0.00000000E+00
  0.00000000E+00  0.00000000E+00  0.00000000E+00
  0.00000000E+00  0.00000000E+00  0.00000000E+00
  0.00000000E+00  0.00000000E+00  0.00000000E+00
  0.00000000E+00  0.00000000E+00  0.00000000E+00
  0.00000000E+00  0.00000000E+00  0.00000000E+00
  0.00000000E+00  0.00000000E+00  0.00000000E+00
  0.00000000E+00  0.00000000E+00  0.00000000E+00
  0.00000000E+00  0.00000000E+00  0.00000000E+00
  0.00000000E+00  0.00000000E+00  0.00000000E+00
  0.00000000E+00  0.00000000E+00  0.00000000E+00
  0.00000000E+00  0.00000000E+00  0.00000000E+00
  0.00000000E+00  0.00000000E+00  0.00000000E+00
  0.00000000E+00  0.00000000E+00  0.00000000E+00
  0.00000000E+00  0.00000000E+00  0.00000000E+00
  0.00000000E+00  0.00000000E+00  0.00000000E+00
  0.00000000E+00  0.00000000E+00  0.00000000E+00
  0.00000000E+00  0.00000000E+00  0.00000000E+00
  0.00000000E+00  0.00000000E+00  0.00000000E+00
  0.00000000E+00  0.00000000E+00  0.00000000E+00
  0.00000000E+00  0.00000000E+00  0.00000000E+00
  0.00000000E+00  0.00000000E+00  0.00000000E+00
  0.00000000E+00  0.00000000E+00  0.00000000E+00
  0.00000000E+00  0.00000000E+00  0.00000000E+00
  0.00000000E+00  0.00000000E+00  0.00000000E+00
  0.00000000E+00  0.00000000E+00  0.00000000E+00
  0.00000000E+00  0.00000000E+00  0.00000000E+00
  0.00000000E+00  0.00000000E+00  0.00000000E+00
  0.00000000E+00  0.00000000E+00  0.00000000E+00
  0.00000000E+00  0.00000000E+00  0.00000000E+00
  0.00000000E+00  0.00000000E+00  0.00000000E+00
  0.00000000E+00  0.00000000E+00  0.00000000E+00
  0.00000000E+00  0.00000000E+00  0.00000000E+00
  0.00000000E+00  0.00000000E+00  0.00000000E+00
  0.00000000E+00  0.00000000E+00  0.00000000E+00
  0.00000000E+00  0.00000000E+00  0.00000000E+00
  0.00000000E+00  0.00000000E+00  0.00000000E+00
  0.00000000E+00  0.00000000E+00  0.00000000E+00
  0.00000000E+00  0.00000000E+00  0.00000000E+00
  0.00000000E+00  0.00000000E+00  0.00000000E+00
  0.00000000E+00  0.00000000E+00  0.00000000E+00
  0.00000000E+00  0.00000000E+00  0.00000000E+00
  0.00000000E+00  0.00000000E+00  0.00000000E+00
  0.00000000E+00  0.00000000E+00  0.00000000E+00
  0.00000000E+00  0.00000000E+00  0.00000000E+00
  0.00000000E+00  0.00000000E+00  0.00000000E+00
  0.00000000E+00  0.00000000E+00  0.00000000E+00
  0.00000000E+00  0.00000000E+00  0.00000000E+00
  0.00000000E+00  0.00000000E+00  0.00000000E+00
  0.00000000E+00  0.00000000E+00  0.00000000E+00
  0.00000000E+00  0.00000000E+00  0.00000000E+00
  0.00000000E+00  0.00000000E+00  0.00000000E+00
  0.00000000E+00  0.00000000E+00  0.00000000E+00
  0.00000000E+00  0.00000000E+00  0.00000000E+00
  0.00000000E+00  0.00000000E+00  0.00000000E+00
  0.00000000E+00  0.00000000E+00  0.00000000E+00
  0.00000000E+00  0.00000000E+00  0.00000000E+00
  0.00000000E+00  0.00000000E+00  0.00000000E+00
  0.00000000E+00  0.00000000E+00  0.00000000E+00
  0.00000000E+00  0.00000000E+00  0.00000000E+00
  0.00000000E+00  0.00000000E+00  0.00000000E+00
  0.00000000E+00  0.00000000E+00  0.00000000E+00
  0.00000000E+00  0.00000000E+00  0.00000000E+00
  0.00000000E+00  0.00000000E+00  0.00000000E+00
  0.00000000E+00  0.00000000E+00  0.00000000E+00
  0.00000000E+00  0.00000000E+00  0.00000000E+00
  0.00000000E+00  0.00000000E+00  0.00000000E+00
  0.00000000E+00  0.00000000E+00  0.00000000E+00
  0.00000000E+00  0.00000000E+00  0.00000000E+00
  0.00000000E+00  0.00000000E+00  0.00000000E+00
