 C  N  H Co  O                          
   1.00000000000000     
    25.7292234217252798    0.0000000000000000    0.0000000000000000
     0.0000000000000000   19.8863769805330470    0.0000000000000000
     0.0000000000000000    0.0000000000000000   24.0000000000000000
   C    N    H    Co   O 
   221    12    16     1     2
Direct
  0.0278556835048036  0.0307180538352227  0.4827097450214595
  0.1390434906758315  0.0307383908602432  0.4838576815609414
  0.1112210882126021  0.0932260931945308  0.4842898107326405
  0.0556655676925857  0.0932131216067376  0.4836378250587146
  0.0278488115792115  0.1557031933293374  0.4843432787524122
  0.1389966301614649  0.1556904633928227  0.4862349853561838
  0.1111663558185398  0.2181691891835058  0.4867796330714285
  0.0556262621271770  0.2182034173559444  0.4854713599939871
  0.0278370839335054  0.2806841635643096  0.4859819305089488
  0.1389277647440395  0.2806590871544614  0.4889662555166652
  0.1111427355506720  0.3431763281007463  0.4888943382224085
  0.0556195610720494  0.3431761422313073  0.4872259875070171
  0.0278403473790192  0.4056725519472977  0.4874154448858476
  0.1389048881872554  0.4056967522255235  0.4906062270249976
  0.1111375477823486  0.4682359584252112  0.4896880058641671
  0.0555952042280623  0.4682157857258034  0.4880573247741040
  0.0278331019447293  0.5307537143656731  0.4870643729164499
  0.1389117065021992  0.5307659371835243  0.4903585838244666
  0.1111417190485042  0.5932734389001624  0.4881912919287856
  0.0278499498623148  0.6557447697756018  0.4839310933893586
  0.1389252285248546  0.6557912076672068  0.4881792340532627
  0.1111543406618765  0.7182662011256937  0.4853944021066354
  0.0556399204770059  0.7182214649726006  0.4831229217726403
  0.0278671836070856  0.7807222999544265  0.4816577162608908
  0.1389686821748910  0.7807696022737716  0.4855161993594166
  0.1112371558724163  0.8432539075099754  0.4833151452233011
  0.0556830602017939  0.8432182908794275  0.4817582901140653
  0.0278620633876301  0.9057299723045276  0.4814594448858500
  0.1390469460091026  0.9057597680395730  0.4835980073687338
  0.1112443325506192  0.9682585623543147  0.4828013457405902
  0.0556645061137502  0.9682301629196530  0.4820905504390467
  0.1945971422298811  0.0307525728247597  0.4853573829284059
  0.3056586270573689  0.0307574159346160  0.4909027649835096
  0.2778648390968854  0.0932397054460594  0.4901923837188420
  0.2223687060821433  0.0932305759651797  0.4874741632560031
  0.1945436532128184  0.1556898609538280  0.4880707349405569
  0.3056059634755712  0.1556979570082717  0.4931980470875246
  0.2778036562948145  0.2181923810857498  0.4934636915688841
  0.2222758808638332  0.2181695397721199  0.4909614876648547
  0.1944613178756924  0.2806766819309132  0.4912082482157913
  0.3055456512576242  0.2807001985180761  0.4960380930214399
  0.2777409517731471  0.3432117392412053  0.4958907222903406
  0.2222141771594082  0.3431922363056401  0.4934778882654953
  0.1944316079013220  0.4057149146869250  0.4929207774381794
  0.3055205140352157  0.4057207919830859  0.4977863510216380
  0.2777361807489100  0.4682513459517850  0.4969496170840912
  0.2222022429682511  0.4682471215162707  0.4944200551912061
  0.1944294016007149  0.5307683951720392  0.4928776204291481
  0.3055393643425788  0.5307679833426135  0.4980931223282781
  0.2777501614100473  0.5932814994338642  0.4963309761619570
  0.2222221746320159  0.5932957919394255  0.4935507438027997
  0.1944427858164133  0.6557867700180324  0.4910697264299557
  0.3055469105097330  0.6557948097172996  0.4967967313511679
  0.2777703665769522  0.7182929781524336  0.4943004584571185
  0.2222481190740027  0.7183059048963329  0.4913164529377596
  0.1944938236367335  0.7807887068238131  0.4883812356573713
  0.3055526530262327  0.7808189840994757  0.4944407473604855
  0.2222868030891689  0.8432998442664683  0.4883954961879766
  0.1945782434180572  0.9057947884254318  0.4857031184326388
  0.3055962821528908  0.9058004734542351  0.4917521991612759
  0.2778826823980509  0.9682961601105902  0.4892038790692510
  0.2223910106452038  0.9682898865364535  0.4862689991255422
  0.3611377124602058  0.0307468161893354  0.4941763636199852
  0.4722879125733073  0.0307286479872175  0.4979990565437831
  0.4444833914626685  0.0932226129252669  0.4978842520987641
  0.3889297771482205  0.0932246144652211  0.4960739851393541
  0.3611272604848281  0.1557221108727660  0.4958419856405172
  0.4722900103874039  0.1557092756369087  0.4991133049717860
  0.4444748454284451  0.2181968051925836  0.4995262210076703
  0.3889080226304813  0.2182058158452023  0.4980227689011585
  0.3610955856777025  0.2807125912816346  0.4981502043841033
  0.4722711853051109  0.2807025834241088  0.5008746649731819
  0.4444531459212513  0.3432104987401416  0.5013228947440780
  0.3888770128716601  0.3432034641007604  0.5000188005462860
  0.3610742247073873  0.4057166665998722  0.4998653295788102
  0.4722754679289523  0.4057127392263595  0.5023563480077087
  0.4444621646639817  0.4682345918713935  0.5023808103684004
  0.3888787301979661  0.4682305820980730  0.5011327425672931
  0.3610862042781307  0.5307514658092032  0.5002643158030438
  0.4722811692602491  0.5307489683399069  0.5027154880414741
  0.4444614530219440  0.5932605675854816  0.5020358582742759
  0.3888905173746338  0.5932706609043450  0.5007880779711513
  0.3610805441038920  0.6557762892350567  0.4991358013826357
  0.4722680769961514  0.6557694141767030  0.5016770726006072
  0.4444510406549824  0.7182625378193706  0.5004855686094842
  0.3888784685358075  0.7182815190093876  0.4991208770113218
  0.3610931548939860  0.7807882858295372  0.4970191675974149
  0.4722572741076121  0.7807684200071705  0.4999269932863157
  0.4444544749834591  0.8432666625704357  0.4986266893725428
  0.3889054306532813  0.8432826658829384  0.4970201081322898
  0.3611078066829236  0.9057641653406918  0.4948324404116278
  0.4722653043727192  0.9057574837602616  0.4983234192891715
  0.4444624796035868  0.9682459630214311  0.4974565950867671
  0.3889115779696866  0.9682545435811036  0.4955686714801786
  0.5278460375671798  0.0307272179900693  0.4981730356347001
  0.6390095149989463  0.0307207094563893  0.4948508188194793
  0.5556665195818127  0.0932103827690227  0.4982081349652105
  0.5278657407727536  0.1557081131116860  0.4992647421135104
  0.6390281110643627  0.1557032686018900  0.4964072322538868
  0.6112434428054740  0.2181998516511996  0.4984527617978074
  0.5556740784806493  0.2182035431012537  0.4997750237044656
  0.5278645584270762  0.2807100067882331  0.5009869894658721
  0.6390501242259816  0.2807134382027385  0.4985522806592897
  0.6112716863285499  0.3432174031962205  0.5003354698229217
  0.5556943699276573  0.3432137246180531  0.5015044085854470
  0.5278756599461190  0.4057137047108768  0.5024384650183435
  0.6390719699312228  0.4057322730893702  0.5001671628898379
  0.6112656774231553  0.4682432794545051  0.5013873561356235
  0.5556823410993346  0.4682396258101988  0.5025077978559196
  0.5278538364088234  0.5307552511903495  0.5027630139173809
  0.6390604627780405  0.5307613092819636  0.5005465657485928
  0.6112409155592786  0.5932751982085449  0.5009617950167993
  0.5556627340585578  0.5932654655268408  0.5021044393012204
  0.5278433560359943  0.6557711057777880  0.5016944038112570
  0.6390406886630942  0.6557822271962621  0.4992928672939740
  0.6112345908793557  0.7182805623928132  0.4992173737037788
  0.5556534535619448  0.7182663272130938  0.5005067131696350
  0.5278364430393410  0.7807712347880411  0.4999363693391388
  0.6390196411335793  0.7807810875710430  0.4971866447188873
  0.6111898220945378  0.8432686828548626  0.4972131608310306
  0.5556409013239261  0.8432680889234945  0.4987041308688944
  0.5278372114593068  0.9057592348287358  0.4984070252905894
  0.6390069569426657  0.9057426152515333  0.4952411431905261
  0.6112138094607857  0.9682334230264402  0.4960752090493799
  0.5556595892206957  0.9682426342173542  0.4977206958150120
  0.6944860272436273  0.0307343223955669  0.4916211849708390
  0.8055374631673828  0.0307279041650972  0.4858787647290015
  0.7777639826560332  0.0932087147107765  0.4880336782401145
  0.7222807174286459  0.0932121199151084  0.4908759527525959
  0.6945468444865952  0.1556805517279116  0.4938073917910870
  0.8055768577680524  0.1556855726981894  0.4885101492743047
  0.7778529638521334  0.2181726184158563  0.4914066158194927
  0.7223332429402660  0.2181830777587734  0.4939497504995387
  0.6945941441429113  0.2806989096690629  0.4964467243216717
  0.8056748676783556  0.2806768209262600  0.4916055777021313
  0.7779308656005028  0.3431981613296813  0.4938172982637425
  0.7224074548976347  0.3432084633340367  0.4962338792364847
  0.6946294838052438  0.4057252428426494  0.4980952229924753
  0.8057033717265369  0.4057200122205131  0.4932223085184759
  0.7779386247841842  0.4682625130455591  0.4947408478401343
  0.6946142181549106  0.5307679943275190  0.4984399159718365
  0.8057166548183758  0.5307778974201938  0.4932032034963640
  0.7779303428365907  0.5933026334999596  0.4939296211873980
  0.7224003015870295  0.5932849739057886  0.4966875915748119
  0.6945899947104195  0.6557890893988869  0.4970747753490343
  0.8057198093402036  0.6557919074264262  0.4914461115110242
  0.7778979335259706  0.7183051434865746  0.4916694664676200
  0.7223657037314837  0.7182831894810064  0.4946069693644120
  0.6945691387613522  0.7808056825177445  0.4947129551264098
  0.8056624993161492  0.7807765233676776  0.4887334392953946
  0.7778616783344035  0.8432795305108698  0.4887941819124890
  0.7223540457632893  0.8432805003476673  0.4918965204521584
  0.6945317023865485  0.9057770869577411  0.4922329969979984
  0.8055710448718045  0.9057705227975319  0.4861224803805229
  0.7777521549004334  0.9682592363848670  0.4868180766534991
  0.7222567949213072  0.9682705372551936  0.4898237578591633
  0.8610799118727854  0.0307139701010399  0.4841913517253431
  0.9722610183525333  0.0307215136503700  0.4827601523423581
  0.9444461736522527  0.0932142195718981  0.4837733850322437
  0.8888888715655128  0.0932147015868239  0.4845533446220216
  0.8611224914715692  0.1556848321491913  0.4865932948673262
  0.9722770757159225  0.1557018120565488  0.4844104537041218
  0.9444989799261734  0.2182028960068294  0.4856143762446621
  0.8889595946930982  0.2181599938476921  0.4870711984286231
  0.8612057241610103  0.2806636914778053  0.4893174932771984
  0.9722931791232270  0.2806837448293962  0.4860548735791141
  0.9445155815966615  0.3431759098339811  0.4873731922674693
  0.8889966691156559  0.3431773485953045  0.4891695080077270
  0.8612302192991450  0.4057029696606023  0.4908673071140157
  0.9722874723278423  0.4056702444028559  0.4874741107407345
  0.9445307734113513  0.4682199632662005  0.4881681677660197
  0.8889897181438329  0.4682473423944913  0.4898856765711983
  0.8612282705609999  0.5307848981508556  0.4906002193950982
  0.9723029967640073  0.5307516122149210  0.4871324846371792
  0.9445515653127075  0.5932900878569072  0.4863901271345341
  0.8890132978989911  0.5932841371271493  0.4884603011887805
  0.8612369211174737  0.6557995239512664  0.4884862681142508
  0.9723099011555547  0.6557465157070013  0.4840100466412736
  0.9445241617557514  0.7182219841428790  0.4832751883227289
  0.8890140186838309  0.7182597766969891  0.4856561825522761
  0.8611927205333387  0.7807593040312071  0.4858158941765254
  0.9722934336903819  0.7807233440073134  0.4817307971520037
  0.9444756734478190  0.8432129492712335  0.4819061033735466
  0.8889231007735745  0.8432370947386119  0.4835761772160367
  0.8611025641729313  0.9057308358068283  0.4839109047310330
  0.9722835018243643  0.9057316417684618  0.4815283921993512
  0.9444671507236535  0.9682233987314746  0.4822174621081246
  0.8888894061768369  0.9682404604805299  0.4830704252661207
  0.9728855268950340  0.2108293206037075  0.6285068437652157
  0.0278049099232476  0.2107523515762253  0.6283577259755262
  0.0437987916737654  0.1402334311245426  0.6276282387226289
  0.9567681147547304  0.1403483061767901  0.6278016259360015
  0.8383886946719485  0.9664336983366084  0.6262035397457453
  0.8383939579270177  0.0374973136821737  0.6264780897266675
  0.8929595886256365  0.0581063041196970  0.6254705702825660
  0.8929021426766468  0.9458057949066614  0.6250970073243138
  0.0273912085665060  0.7926979294036229  0.6283278775038426
  0.9724707199654077  0.7927698222036170  0.6282896885439229
  0.9564927221367228  0.8633188739594715  0.6274343748555253
  0.0434747467253729  0.8632136072780838  0.6274802555178383
  0.1619647677664418  0.0369944203424382  0.6259200813086210
  0.1618024429074723  0.9659269539307829  0.6257546463215888
  0.1072344614501688  0.9455240599172470  0.6250299560774977
  0.1074476265671223  0.0578204513969141  0.6252475410698963
  0.7917788358996631  0.9297872719430629  0.6273299177436442
  0.7450968771391899  0.9662654836560520  0.6288795626086383
  0.7450903152197981  0.0374698495429442  0.6290488163955033
  0.7917472521179079  0.0740512133466993  0.6277832032190460
  0.9446846465968051  0.2712054989309181  0.6280757745350414
  0.9729759561723412  0.3315694560793006  0.6277095329439319
  0.0279984645066023  0.3314841634051362  0.6275266478060431
  0.0561539450946356  0.2710016608154433  0.6277323043995580
  0.2086996577276565  0.0733550323966554  0.6268281690971023
  0.2552831686735502  0.0366179162580238  0.6277905884886437
  0.2551051921975684  0.9654077901809828  0.6277116159189120
  0.2083315697563251  0.9291154755002680  0.6265730234202351
  0.0555997113560096  0.7323058682262626  0.6281446305631420
  0.0273436496067490  0.6718904892253050  0.6282804908925641
  0.9723097087296466  0.6719609934323003  0.6282505746785390
  0.9441609226253576  0.7324594142565104  0.6280861999989042
  0.9998019597402319  0.0009350470038427  0.7211032982237882
  0.0556035392437551  0.5932823192619594  0.4862319227112977
  0.2777795011280944  0.8433003053812058  0.4915274960133402
  0.6112248530045434  0.0932051759055668  0.4966459928900520
  0.7224131492973314  0.4682577645065678  0.4972730296035053
  0.0002462818602353  0.0984177426306800  0.6274432174937132
  0.9251366355197490  0.0019375981851368  0.6239356893713150
  0.9070883322270973  0.1223337902404538  0.6274299347347352
  0.0000140216064111  0.9051362993539769  0.6272289705121139
  0.9068723701798618  0.8815173478595852  0.6267813885241438
  0.0751226003521168  0.0017725528619863  0.6239899110051823
  0.0934524937577521  0.1220972523801223  0.6271272126008469
  0.0931227694231751  0.8812872124677469  0.6267827095105005
  0.0985336643583068  0.2707794385528004  0.6265184610809911
  0.9022979802525413  0.2711639062461870  0.6271232390462060
  0.7917622142137546  0.1288934063513238  0.6271402846916416
  0.7918765906030671  0.8749538118196440  0.6263399601327393
  0.9017766180944307  0.7326475464597308  0.6270892714553540
  0.0979840140963262  0.7323712266080733  0.6272051399260477
  0.2080971773676978  0.8742812721859039  0.6257027102480421
  0.2088032632838832  0.1281990085084033  0.6261664539925462
  0.2920710060058553  0.9384545915060869  0.6276515111711873
  0.2923828544388769  0.0632468088822833  0.6278047676751726
  0.0480527303613769  0.6239752197206840  0.6275142906539770
  0.9515318012797209  0.6240998022459934  0.6274535847397331
  0.7080670536982652  0.9394588261664794  0.6290539675537161
  0.7080446622597165  0.0642412570322151  0.6293758587392162
  0.9523016432261500  0.3794944077794398  0.6266029434679155
  0.0487662237815343  0.3793330174200662  0.6262757685351659
  0.0001126637346687  0.0018014911068747  0.6288634251119518
  0.9547081819562138  0.0028396342010026  0.7376069554306000
  0.0448235487618120  0.9986722416456431  0.7377706973755096
 
  0.00000000E+00  0.00000000E+00  0.00000000E+00
  0.00000000E+00  0.00000000E+00  0.00000000E+00
  0.00000000E+00  0.00000000E+00  0.00000000E+00
  0.00000000E+00  0.00000000E+00  0.00000000E+00
  0.00000000E+00  0.00000000E+00  0.00000000E+00
  0.00000000E+00  0.00000000E+00  0.00000000E+00
  0.00000000E+00  0.00000000E+00  0.00000000E+00
  0.00000000E+00  0.00000000E+00  0.00000000E+00
  0.00000000E+00  0.00000000E+00  0.00000000E+00
  0.00000000E+00  0.00000000E+00  0.00000000E+00
  0.00000000E+00  0.00000000E+00  0.00000000E+00
  0.00000000E+00  0.00000000E+00  0.00000000E+00
  0.00000000E+00  0.00000000E+00  0.00000000E+00
  0.00000000E+00  0.00000000E+00  0.00000000E+00
  0.00000000E+00  0.00000000E+00  0.00000000E+00
  0.00000000E+00  0.00000000E+00  0.00000000E+00
  0.00000000E+00  0.00000000E+00  0.00000000E+00
  0.00000000E+00  0.00000000E+00  0.00000000E+00
  0.00000000E+00  0.00000000E+00  0.00000000E+00
  0.00000000E+00  0.00000000E+00  0.00000000E+00
  0.00000000E+00  0.00000000E+00  0.00000000E+00
  0.00000000E+00  0.00000000E+00  0.00000000E+00
  0.00000000E+00  0.00000000E+00  0.00000000E+00
  0.00000000E+00  0.00000000E+00  0.00000000E+00
  0.00000000E+00  0.00000000E+00  0.00000000E+00
  0.00000000E+00  0.00000000E+00  0.00000000E+00
  0.00000000E+00  0.00000000E+00  0.00000000E+00
  0.00000000E+00  0.00000000E+00  0.00000000E+00
  0.00000000E+00  0.00000000E+00  0.00000000E+00
  0.00000000E+00  0.00000000E+00  0.00000000E+00
  0.00000000E+00  0.00000000E+00  0.00000000E+00
  0.00000000E+00  0.00000000E+00  0.00000000E+00
  0.00000000E+00  0.00000000E+00  0.00000000E+00
  0.00000000E+00  0.00000000E+00  0.00000000E+00
  0.00000000E+00  0.00000000E+00  0.00000000E+00
  0.00000000E+00  0.00000000E+00  0.00000000E+00
  0.00000000E+00  0.00000000E+00  0.00000000E+00
  0.00000000E+00  0.00000000E+00  0.00000000E+00
  0.00000000E+00  0.00000000E+00  0.00000000E+00
  0.00000000E+00  0.00000000E+00  0.00000000E+00
  0.00000000E+00  0.00000000E+00  0.00000000E+00
  0.00000000E+00  0.00000000E+00  0.00000000E+00
  0.00000000E+00  0.00000000E+00  0.00000000E+00
  0.00000000E+00  0.00000000E+00  0.00000000E+00
  0.00000000E+00  0.00000000E+00  0.00000000E+00
  0.00000000E+00  0.00000000E+00  0.00000000E+00
  0.00000000E+00  0.00000000E+00  0.00000000E+00
  0.00000000E+00  0.00000000E+00  0.00000000E+00
  0.00000000E+00  0.00000000E+00  0.00000000E+00
  0.00000000E+00  0.00000000E+00  0.00000000E+00
  0.00000000E+00  0.00000000E+00  0.00000000E+00
  0.00000000E+00  0.00000000E+00  0.00000000E+00
  0.00000000E+00  0.00000000E+00  0.00000000E+00
  0.00000000E+00  0.00000000E+00  0.00000000E+00
  0.00000000E+00  0.00000000E+00  0.00000000E+00
  0.00000000E+00  0.00000000E+00  0.00000000E+00
  0.00000000E+00  0.00000000E+00  0.00000000E+00
  0.00000000E+00  0.00000000E+00  0.00000000E+00
  0.00000000E+00  0.00000000E+00  0.00000000E+00
  0.00000000E+00  0.00000000E+00  0.00000000E+00
  0.00000000E+00  0.00000000E+00  0.00000000E+00
  0.00000000E+00  0.00000000E+00  0.00000000E+00
  0.00000000E+00  0.00000000E+00  0.00000000E+00
  0.00000000E+00  0.00000000E+00  0.00000000E+00
  0.00000000E+00  0.00000000E+00  0.00000000E+00
  0.00000000E+00  0.00000000E+00  0.00000000E+00
  0.00000000E+00  0.00000000E+00  0.00000000E+00
  0.00000000E+00  0.00000000E+00  0.00000000E+00
  0.00000000E+00  0.00000000E+00  0.00000000E+00
  0.00000000E+00  0.00000000E+00  0.00000000E+00
  0.00000000E+00  0.00000000E+00  0.00000000E+00
  0.00000000E+00  0.00000000E+00  0.00000000E+00
  0.00000000E+00  0.00000000E+00  0.00000000E+00
  0.00000000E+00  0.00000000E+00  0.00000000E+00
  0.00000000E+00  0.00000000E+00  0.00000000E+00
  0.00000000E+00  0.00000000E+00  0.00000000E+00
  0.00000000E+00  0.00000000E+00  0.00000000E+00
  0.00000000E+00  0.00000000E+00  0.00000000E+00
  0.00000000E+00  0.00000000E+00  0.00000000E+00
  0.00000000E+00  0.00000000E+00  0.00000000E+00
  0.00000000E+00  0.00000000E+00  0.00000000E+00
  0.00000000E+00  0.00000000E+00  0.00000000E+00
  0.00000000E+00  0.00000000E+00  0.00000000E+00
  0.00000000E+00  0.00000000E+00  0.00000000E+00
  0.00000000E+00  0.00000000E+00  0.00000000E+00
  0.00000000E+00  0.00000000E+00  0.00000000E+00
  0.00000000E+00  0.00000000E+00  0.00000000E+00
  0.00000000E+00  0.00000000E+00  0.00000000E+00
  0.00000000E+00  0.00000000E+00  0.00000000E+00
  0.00000000E+00  0.00000000E+00  0.00000000E+00
  0.00000000E+00  0.00000000E+00  0.00000000E+00
  0.00000000E+00  0.00000000E+00  0.00000000E+00
  0.00000000E+00  0.00000000E+00  0.00000000E+00
  0.00000000E+00  0.00000000E+00  0.00000000E+00
  0.00000000E+00  0.00000000E+00  0.00000000E+00
  0.00000000E+00  0.00000000E+00  0.00000000E+00
  0.00000000E+00  0.00000000E+00  0.00000000E+00
  0.00000000E+00  0.00000000E+00  0.00000000E+00
  0.00000000E+00  0.00000000E+00  0.00000000E+00
  0.00000000E+00  0.00000000E+00  0.00000000E+00
  0.00000000E+00  0.00000000E+00  0.00000000E+00
  0.00000000E+00  0.00000000E+00  0.00000000E+00
  0.00000000E+00  0.00000000E+00  0.00000000E+00
  0.00000000E+00  0.00000000E+00  0.00000000E+00
  0.00000000E+00  0.00000000E+00  0.00000000E+00
  0.00000000E+00  0.00000000E+00  0.00000000E+00
  0.00000000E+00  0.00000000E+00  0.00000000E+00
  0.00000000E+00  0.00000000E+00  0.00000000E+00
  0.00000000E+00  0.00000000E+00  0.00000000E+00
  0.00000000E+00  0.00000000E+00  0.00000000E+00
  0.00000000E+00  0.00000000E+00  0.00000000E+00
  0.00000000E+00  0.00000000E+00  0.00000000E+00
  0.00000000E+00  0.00000000E+00  0.00000000E+00
  0.00000000E+00  0.00000000E+00  0.00000000E+00
  0.00000000E+00  0.00000000E+00  0.00000000E+00
  0.00000000E+00  0.00000000E+00  0.00000000E+00
  0.00000000E+00  0.00000000E+00  0.00000000E+00
  0.00000000E+00  0.00000000E+00  0.00000000E+00
  0.00000000E+00  0.00000000E+00  0.00000000E+00
  0.00000000E+00  0.00000000E+00  0.00000000E+00
  0.00000000E+00  0.00000000E+00  0.00000000E+00
  0.00000000E+00  0.00000000E+00  0.00000000E+00
  0.00000000E+00  0.00000000E+00  0.00000000E+00
  0.00000000E+00  0.00000000E+00  0.00000000E+00
  0.00000000E+00  0.00000000E+00  0.00000000E+00
  0.00000000E+00  0.00000000E+00  0.00000000E+00
  0.00000000E+00  0.00000000E+00  0.00000000E+00
  0.00000000E+00  0.00000000E+00  0.00000000E+00
  0.00000000E+00  0.00000000E+00  0.00000000E+00
  0.00000000E+00  0.00000000E+00  0.00000000E+00
  0.00000000E+00  0.00000000E+00  0.00000000E+00
  0.00000000E+00  0.00000000E+00  0.00000000E+00
  0.00000000E+00  0.00000000E+00  0.00000000E+00
  0.00000000E+00  0.00000000E+00  0.00000000E+00
  0.00000000E+00  0.00000000E+00  0.00000000E+00
  0.00000000E+00  0.00000000E+00  0.00000000E+00
  0.00000000E+00  0.00000000E+00  0.00000000E+00
  0.00000000E+00  0.00000000E+00  0.00000000E+00
  0.00000000E+00  0.00000000E+00  0.00000000E+00
  0.00000000E+00  0.00000000E+00  0.00000000E+00
  0.00000000E+00  0.00000000E+00  0.00000000E+00
  0.00000000E+00  0.00000000E+00  0.00000000E+00
  0.00000000E+00  0.00000000E+00  0.00000000E+00
  0.00000000E+00  0.00000000E+00  0.00000000E+00
  0.00000000E+00  0.00000000E+00  0.00000000E+00
  0.00000000E+00  0.00000000E+00  0.00000000E+00
  0.00000000E+00  0.00000000E+00  0.00000000E+00
  0.00000000E+00  0.00000000E+00  0.00000000E+00
  0.00000000E+00  0.00000000E+00  0.00000000E+00
  0.00000000E+00  0.00000000E+00  0.00000000E+00
  0.00000000E+00  0.00000000E+00  0.00000000E+00
  0.00000000E+00  0.00000000E+00  0.00000000E+00
  0.00000000E+00  0.00000000E+00  0.00000000E+00
  0.00000000E+00  0.00000000E+00  0.00000000E+00
  0.00000000E+00  0.00000000E+00  0.00000000E+00
  0.00000000E+00  0.00000000E+00  0.00000000E+00
  0.00000000E+00  0.00000000E+00  0.00000000E+00
  0.00000000E+00  0.00000000E+00  0.00000000E+00
  0.00000000E+00  0.00000000E+00  0.00000000E+00
  0.00000000E+00  0.00000000E+00  0.00000000E+00
  0.00000000E+00  0.00000000E+00  0.00000000E+00
  0.00000000E+00  0.00000000E+00  0.00000000E+00
  0.00000000E+00  0.00000000E+00  0.00000000E+00
  0.00000000E+00  0.00000000E+00  0.00000000E+00
  0.00000000E+00  0.00000000E+00  0.00000000E+00
  0.00000000E+00  0.00000000E+00  0.00000000E+00
  0.00000000E+00  0.00000000E+00  0.00000000E+00
  0.00000000E+00  0.00000000E+00  0.00000000E+00
  0.00000000E+00  0.00000000E+00  0.00000000E+00
  0.00000000E+00  0.00000000E+00  0.00000000E+00
  0.00000000E+00  0.00000000E+00  0.00000000E+00
  0.00000000E+00  0.00000000E+00  0.00000000E+00
  0.00000000E+00  0.00000000E+00  0.00000000E+00
  0.00000000E+00  0.00000000E+00  0.00000000E+00
  0.00000000E+00  0.00000000E+00  0.00000000E+00
  0.00000000E+00  0.00000000E+00  0.00000000E+00
  0.00000000E+00  0.00000000E+00  0.00000000E+00
  0.00000000E+00  0.00000000E+00  0.00000000E+00
  0.00000000E+00  0.00000000E+00  0.00000000E+00
  0.00000000E+00  0.00000000E+00  0.00000000E+00
  0.00000000E+00  0.00000000E+00  0.00000000E+00
  0.00000000E+00  0.00000000E+00  0.00000000E+00
  0.00000000E+00  0.00000000E+00  0.00000000E+00
  0.00000000E+00  0.00000000E+00  0.00000000E+00
  0.00000000E+00  0.00000000E+00  0.00000000E+00
  0.00000000E+00  0.00000000E+00  0.00000000E+00
  0.00000000E+00  0.00000000E+00  0.00000000E+00
  0.00000000E+00  0.00000000E+00  0.00000000E+00
  0.00000000E+00  0.00000000E+00  0.00000000E+00
  0.00000000E+00  0.00000000E+00  0.00000000E+00
  0.00000000E+00  0.00000000E+00  0.00000000E+00
  0.00000000E+00  0.00000000E+00  0.00000000E+00
  0.00000000E+00  0.00000000E+00  0.00000000E+00
  0.00000000E+00  0.00000000E+00  0.00000000E+00
  0.00000000E+00  0.00000000E+00  0.00000000E+00
  0.00000000E+00  0.00000000E+00  0.00000000E+00
  0.00000000E+00  0.00000000E+00  0.00000000E+00
  0.00000000E+00  0.00000000E+00  0.00000000E+00
  0.00000000E+00  0.00000000E+00  0.00000000E+00
  0.00000000E+00  0.00000000E+00  0.00000000E+00
  0.00000000E+00  0.00000000E+00  0.00000000E+00
  0.00000000E+00  0.00000000E+00  0.00000000E+00
  0.00000000E+00  0.00000000E+00  0.00000000E+00
  0.00000000E+00  0.00000000E+00  0.00000000E+00
  0.00000000E+00  0.00000000E+00  0.00000000E+00
  0.00000000E+00  0.00000000E+00  0.00000000E+00
  0.00000000E+00  0.00000000E+00  0.00000000E+00
  0.00000000E+00  0.00000000E+00  0.00000000E+00
  0.00000000E+00  0.00000000E+00  0.00000000E+00
  0.00000000E+00  0.00000000E+00  0.00000000E+00
  0.00000000E+00  0.00000000E+00  0.00000000E+00
  0.00000000E+00  0.00000000E+00  0.00000000E+00
  0.00000000E+00  0.00000000E+00  0.00000000E+00
  0.00000000E+00  0.00000000E+00  0.00000000E+00
  0.00000000E+00  0.00000000E+00  0.00000000E+00
  0.00000000E+00  0.00000000E+00  0.00000000E+00
  0.00000000E+00  0.00000000E+00  0.00000000E+00
  0.00000000E+00  0.00000000E+00  0.00000000E+00
  0.00000000E+00  0.00000000E+00  0.00000000E+00
  0.00000000E+00  0.00000000E+00  0.00000000E+00
  0.00000000E+00  0.00000000E+00  0.00000000E+00
  0.00000000E+00  0.00000000E+00  0.00000000E+00
  0.00000000E+00  0.00000000E+00  0.00000000E+00
  0.00000000E+00  0.00000000E+00  0.00000000E+00
  0.00000000E+00  0.00000000E+00  0.00000000E+00
  0.00000000E+00  0.00000000E+00  0.00000000E+00
  0.00000000E+00  0.00000000E+00  0.00000000E+00
  0.00000000E+00  0.00000000E+00  0.00000000E+00
  0.00000000E+00  0.00000000E+00  0.00000000E+00
  0.00000000E+00  0.00000000E+00  0.00000000E+00
  0.00000000E+00  0.00000000E+00  0.00000000E+00
  0.00000000E+00  0.00000000E+00  0.00000000E+00
  0.00000000E+00  0.00000000E+00  0.00000000E+00
  0.00000000E+00  0.00000000E+00  0.00000000E+00
  0.00000000E+00  0.00000000E+00  0.00000000E+00
  0.00000000E+00  0.00000000E+00  0.00000000E+00
  0.00000000E+00  0.00000000E+00  0.00000000E+00
  0.00000000E+00  0.00000000E+00  0.00000000E+00
  0.00000000E+00  0.00000000E+00  0.00000000E+00
  0.00000000E+00  0.00000000E+00  0.00000000E+00
  0.00000000E+00  0.00000000E+00  0.00000000E+00
  0.00000000E+00  0.00000000E+00  0.00000000E+00
  0.00000000E+00  0.00000000E+00  0.00000000E+00
  0.00000000E+00  0.00000000E+00  0.00000000E+00
  0.00000000E+00  0.00000000E+00  0.00000000E+00
  0.00000000E+00  0.00000000E+00  0.00000000E+00
  0.00000000E+00  0.00000000E+00  0.00000000E+00
  0.00000000E+00  0.00000000E+00  0.00000000E+00
  0.00000000E+00  0.00000000E+00  0.00000000E+00
  0.00000000E+00  0.00000000E+00  0.00000000E+00
  0.00000000E+00  0.00000000E+00  0.00000000E+00
  0.00000000E+00  0.00000000E+00  0.00000000E+00
